c Star graph problem
c Center node 1 connected to nodes 2,3,4,5
c Multiple supplies flow through center to single sink
c Supplies: nodes 2,3,4 (5 units each)
c Demand: node 5 (-15 units)
c All must flow through center node 1
p min 5 8
n 2 5
n 3 5
n 4 5
n 5 -15
a 2 1 0 5 2
a 3 1 0 5 3
a 4 1 0 5 1
a 1 2 0 5 2
a 1 3 0 5 3
a 1 4 0 5 1
a 1 5 0 15 4
a 5 1 0 15 4